c {"clauses":8,"maxClauseSize":16,"minClauseSize":6,"totalLiterals":84,"variables":54}
p cnf 54 8
1 2 3 -4 -5 6 7 -8 9 10 11 0
12 13 14 15 16 -7 -17 18 -19 20 0
-21 -22 14 23 -17 -24 25 26 -15 27 0
28 29 30 21 -27 -31 -29 -32 -33 34 -35 36 30 -24 -37 38 0
-39 29 40 -41 42 -43 44 -41 -7 -45 0
-3 -12 41 -46 -2 -28 -20 -47 -48 47 49 -50 0
-29 -38 -3 -28 -48 51 0
-52 -2 53 38 -54 -21 26 -21 36 0
